ATOMIC_SPECIES
Al  26.9815385    Al_ONCV_PBE-1.0.upf
O   15.999        O_ONCV_PBE-1.0.upf

NUMERICAL_ORBITAL
Al_gga_9au_60Ry_4s4p1d.orb
O_gga_7au_60Ry_2s2p1d.orb

LATTICE_CONSTANT
1.8897261258369282 

LATTICE_VECTORS
2.8985030000      0.0000000000      0.0000000000      
1.4479130000      2.5109500000      0.0000000000      
21.621101000      12.490632000      45.487860000      

ATOMIC_POSITIONS
Direct

Al
0.0000000000
10
0.7960920000 0.7960920000 0.2407770000 1 1 1 mag 0.0 
0.2179820000 0.2179820000 0.3564100000 1 1 1 mag 0.0 
0.7010530000 0.7010530000 0.5265730000 1 1 1 mag 0.0 
0.5845370000 0.5845370000 0.6164060000 1 1 1 mag 0.0 
0.6167050000 0.6167050000 0.6767640000 1 1 1 mag 0.0 
0.5478810000 0.5478810000 0.7569030000 1 1 1 mag 0.0 
0.4778460000 0.4778460000 0.8376870000 1 1 1 mag 0.0 
0.5105060000 0.5105060000 0.8980130000 1 1 1 mag 0.0 
0.3977820000 0.3977820000 0.9901550000 1 1 1 mag 0.0 
0.4066380000 0.4066380000 0.0522510000 1 1 1 mag 0.0 

O
0.0000000000
15
0.8765100000 0.8765100000 0.0213120000 1 1 1 mag 0.0 
0.0009930000 0.0009930000 0.0664890000 1 1 1 mag 0.0 
0.9625780000 0.9625780000 0.1408200000 1 1 1 mag 0.0 
0.9893730000 0.9893730000 0.2022340000 1 1 1 mag 0.0 
0.0580640000 0.0580640000 0.2551520000 1 1 1 mag 0.0 
0.0248500000 0.0248500000 0.3950820000 1 1 1 mag 0.0 
0.9562710000 0.9562710000 0.3419950000 1 1 1 mag 0.0 
0.8898630000 0.8898630000 0.4882070000 1 1 1 mag 0.0 
0.9581560000 0.9581560000 0.5418980000 1 1 1 mag 0.0 
0.9876580000 0.9876580000 0.6023890000 1 1 1 mag 0.0 
0.2066080000 0.2066080000 0.6921750000 1 1 1 mag 0.0 
0.0960910000 0.0960910000 0.6474560000 1 1 1 mag 0.0 
0.9956720000 0.9956720000 0.8675450000 1 1 1 mag 0.0 
0.8857840000 0.8857840000 0.8227050000 1 1 1 mag 0.0 
0.1045060000 0.1045060000 0.9126060000 1 1 1 mag 0.0 

