	ATOMIC_SPECIES
	Fe 55.85 ../../PP_ORB/Fe_ONCV_PBE-1.0.upf
	
	NUMERICAL_ORBITAL
	../../PP_ORB/Fe_gga_8au_100Ry_4s2p2d1f.orb
	
	LATTICE_CONSTANT
	1.8897261258369282

	LATTICE_VECTORS
   11.3155758937     0.0000000000     0.0000000000 #latvec1
    0.0000000000    11.3155758937     0.0000000000 #latvec2
    0.0000000000     0.0000000000    11.3155758937 #latvec3

	ATOMIC_POSITIONS
	Direct
	Fe
	4
	128
     0.000000000         0.000000000         0.000000000
     0.125000000         0.125000000         0.125000000
     0.250000000         0.000000000         0.000000000
     0.375000000         0.125000000         0.125000000
     0.500000000         0.000000000         0.000000000
     0.625000000         0.125000000         0.125000000
     0.750000000         0.000000000         0.000000000
     0.875000000         0.125000000         0.125000000
     0.000000000         0.250000000         0.000000000
     0.125000000         0.375000000         0.125000000
     0.250000000         0.250000000         0.000000000
     0.375000000         0.375000000         0.125000000
     0.500000000         0.250000000         0.000000000
     0.625000000         0.375000000         0.125000000
     0.750000000         0.250000000         0.000000000
     0.875000000         0.375000000         0.125000000
     0.000000000         0.500000000         0.000000000
     0.125000000         0.625000000         0.125000000
     0.250000000         0.500000000         0.000000000
     0.375000000         0.625000000         0.125000000
     0.500000000         0.500000000         0.000000000
     0.625000000         0.625000000         0.125000000
     0.750000000         0.500000000         0.000000000
     0.875000000         0.625000000         0.125000000
     0.000000000         0.750000000         0.000000000
     0.125000000         0.875000000         0.125000000
     0.250000000         0.750000000         0.000000000
     0.375000000         0.875000000         0.125000000
     0.500000000         0.750000000         0.000000000
     0.625000000         0.875000000         0.125000000
     0.750000000         0.750000000         0.000000000
     0.875000000         0.875000000         0.125000000
     0.000000000         0.000000000         0.250000000
     0.125000000         0.125000000         0.375000000
     0.250000000         0.000000000         0.250000000
     0.375000000         0.125000000         0.375000000
     0.500000000         0.000000000         0.250000000
     0.625000000         0.125000000         0.375000000
     0.750000000         0.000000000         0.250000000
     0.875000000         0.125000000         0.375000000
     0.000000000         0.250000000         0.250000000
     0.125000000         0.375000000         0.375000000
     0.250000000         0.250000000         0.250000000
     0.375000000         0.375000000         0.375000000
     0.500000000         0.250000000         0.250000000
     0.625000000         0.375000000         0.375000000
     0.750000000         0.250000000         0.250000000
     0.875000000         0.375000000         0.375000000
     0.000000000         0.500000000         0.250000000
     0.125000000         0.625000000         0.375000000
     0.250000000         0.500000000         0.250000000
     0.375000000         0.625000000         0.375000000
     0.500000000         0.500000000         0.250000000
     0.625000000         0.625000000         0.375000000
     0.750000000         0.500000000         0.250000000
     0.875000000         0.625000000         0.375000000
     0.000000000         0.750000000         0.250000000
     0.125000000         0.875000000         0.375000000
     0.250000000         0.750000000         0.250000000
     0.375000000         0.875000000         0.375000000
     0.500000000         0.750000000         0.250000000
     0.625000000         0.875000000         0.375000000
     0.750000000         0.750000000         0.250000000
     0.875000000         0.875000000         0.375000000
     0.000000000         0.000000000         0.500000000
     0.125000000         0.125000000         0.625000000
     0.250000000         0.000000000         0.500000000
     0.375000000         0.125000000         0.625000000
     0.500000000         0.000000000         0.500000000
     0.625000000         0.125000000         0.625000000
     0.750000000         0.000000000         0.500000000
     0.875000000         0.125000000         0.625000000
     0.000000000         0.250000000         0.500000000
     0.125000000         0.375000000         0.625000000
     0.250000000         0.250000000         0.500000000
     0.375000000         0.375000000         0.625000000
     0.500000000         0.250000000         0.500000000
     0.625000000         0.375000000         0.625000000
     0.750000000         0.250000000         0.500000000
     0.875000000         0.375000000         0.625000000
     0.000000000         0.500000000         0.500000000
     0.125000000         0.625000000         0.625000000
     0.250000000         0.500000000         0.500000000
     0.375000000         0.625000000         0.625000000
     0.500000000         0.500000000         0.500000000
     0.625000000         0.625000000         0.625000000
     0.750000000         0.500000000         0.500000000
     0.875000000         0.625000000         0.625000000
     0.000000000         0.750000000         0.500000000
     0.125000000         0.875000000         0.625000000
     0.250000000         0.750000000         0.500000000
     0.375000000         0.875000000         0.625000000
     0.500000000         0.750000000         0.500000000
     0.625000000         0.875000000         0.625000000
     0.750000000         0.750000000         0.500000000
     0.875000000         0.875000000         0.625000000
     0.000000000         0.000000000         0.750000000
     0.125000000         0.125000000         0.875000000
     0.250000000         0.000000000         0.750000000
     0.375000000         0.125000000         0.875000000
     0.500000000         0.000000000         0.750000000
     0.625000000         0.125000000         0.875000000
     0.750000000         0.000000000         0.750000000
     0.875000000         0.125000000         0.875000000
     0.000000000         0.250000000         0.750000000
     0.125000000         0.375000000         0.875000000
     0.250000000         0.250000000         0.750000000
     0.375000000         0.375000000         0.875000000
     0.500000000         0.250000000         0.750000000
     0.625000000         0.375000000         0.875000000
     0.750000000         0.250000000         0.750000000
     0.875000000         0.375000000         0.875000000
     0.000000000         0.500000000         0.750000000
     0.125000000         0.625000000         0.875000000
     0.250000000         0.500000000         0.750000000
     0.375000000         0.625000000         0.875000000
     0.500000000         0.500000000         0.750000000
     0.625000000         0.625000000         0.875000000
     0.750000000         0.500000000         0.750000000
     0.875000000         0.625000000         0.875000000
     0.000000000         0.750000000         0.750000000
     0.125000000         0.875000000         0.875000000
     0.250000000         0.750000000         0.750000000
     0.375000000         0.875000000         0.875000000
     0.500000000         0.750000000         0.750000000
     0.625000000         0.875000000         0.875000000
     0.750000000         0.750000000         0.750000000
     0.875000000         0.875000000         0.875000000
