	ATOMIC_SPECIES
	Fe 55.85 ../../PP_ORB/Fe_ONCV_PBE-1.0.upf

	NUMERICAL_ORBITAL
	../../PP_ORB/Fe_gga_8au_100Ry_4s2p2d1f.orb

	LATTICE_CONSTANT
	1.8897261258369282

	LATTICE_VECTORS
       11.3199996948         0.0000000000         0.0000000000
        0.0000000000        11.3199996948         0.0000000000
        0.0000000000         0.0000000000        22.6399993896

	ATOMIC_POSITIONS
	Direct
	Fe
	2
 	256
     0.000000000         0.000000000         0.000000000
     0.125000000         0.125000000         0.062500000
     0.250000000         0.000000000         0.000000000
     0.375000000         0.125000000         0.062500000
     0.500000000         0.000000000         0.000000000
     0.625000000         0.125000000         0.062500000
     0.750000000         0.000000000         0.000000000
     0.875000000         0.125000000         0.062500000
     0.000000000         0.250000000         0.000000000
     0.125000000         0.375000000         0.062500000
     0.250000000         0.250000000         0.000000000
     0.375000000         0.375000000         0.062500000
     0.500000000         0.250000000         0.000000000
     0.625000000         0.375000000         0.062500000
     0.750000000         0.250000000         0.000000000
     0.875000000         0.375000000         0.062500000
     0.000000000         0.500000000         0.000000000
     0.125000000         0.625000000         0.062500000
     0.250000000         0.500000000         0.000000000
     0.375000000         0.625000000         0.062500000
     0.500000000         0.500000000         0.000000000
     0.625000000         0.625000000         0.062500000
     0.750000000         0.500000000         0.000000000
     0.875000000         0.625000000         0.062500000
     0.000000000         0.750000000         0.000000000
     0.125000000         0.875000000         0.062500000
     0.250000000         0.750000000         0.000000000
     0.375000000         0.875000000         0.062500000
     0.500000000         0.750000000         0.000000000
     0.625000000         0.875000000         0.062500000
     0.750000000         0.750000000         0.000000000
     0.875000000         0.875000000         0.062500000
     0.000000000         0.000000000         0.125000000
     0.125000000         0.125000000         0.187500000
     0.250000000         0.000000000         0.125000000
     0.375000000         0.125000000         0.187500000
     0.500000000         0.000000000         0.125000000
     0.625000000         0.125000000         0.187500000
     0.750000000         0.000000000         0.125000000
     0.875000000         0.125000000         0.187500000
     0.000000000         0.250000000         0.125000000
     0.125000000         0.375000000         0.187500000
     0.250000000         0.250000000         0.125000000
     0.375000000         0.375000000         0.187500000
     0.500000000         0.250000000         0.125000000
     0.625000000         0.375000000         0.187500000
     0.750000000         0.250000000         0.125000000
     0.875000000         0.375000000         0.187500000
     0.000000000         0.500000000         0.125000000
     0.125000000         0.625000000         0.187500000
     0.250000000         0.500000000         0.125000000
     0.375000000         0.625000000         0.187500000
     0.500000000         0.500000000         0.125000000
     0.625000000         0.625000000         0.187500000
     0.750000000         0.500000000         0.125000000
     0.875000000         0.625000000         0.187500000
     0.000000000         0.750000000         0.125000000
     0.125000000         0.875000000         0.187500000
     0.250000000         0.750000000         0.125000000
     0.375000000         0.875000000         0.187500000
     0.500000000         0.750000000         0.125000000
     0.625000000         0.875000000         0.187500000
     0.750000000         0.750000000         0.125000000
     0.875000000         0.875000000         0.187500000
     0.000000000         0.000000000         0.250000000
     0.125000000         0.125000000         0.312500000
     0.250000000         0.000000000         0.250000000
     0.375000000         0.125000000         0.312500000
     0.500000000         0.000000000         0.250000000
     0.625000000         0.125000000         0.312500000
     0.750000000         0.000000000         0.250000000
     0.875000000         0.125000000         0.312500000
     0.000000000         0.250000000         0.250000000
     0.125000000         0.375000000         0.312500000
     0.250000000         0.250000000         0.250000000
     0.375000000         0.375000000         0.312500000
     0.500000000         0.250000000         0.250000000
     0.625000000         0.375000000         0.312500000
     0.750000000         0.250000000         0.250000000
     0.875000000         0.375000000         0.312500000
     0.000000000         0.500000000         0.250000000
     0.125000000         0.625000000         0.312500000
     0.250000000         0.500000000         0.250000000
     0.375000000         0.625000000         0.312500000
     0.500000000         0.500000000         0.250000000
     0.625000000         0.625000000         0.312500000
     0.750000000         0.500000000         0.250000000
     0.875000000         0.625000000         0.312500000
     0.000000000         0.750000000         0.250000000
     0.125000000         0.875000000         0.312500000
     0.250000000         0.750000000         0.250000000
     0.375000000         0.875000000         0.312500000
     0.500000000         0.750000000         0.250000000
     0.625000000         0.875000000         0.312500000
     0.750000000         0.750000000         0.250000000
     0.875000000         0.875000000         0.312500000
     0.000000000         0.000000000         0.375000000
     0.125000000         0.125000000         0.437500000
     0.250000000         0.000000000         0.375000000
     0.375000000         0.125000000         0.437500000
     0.500000000         0.000000000         0.375000000
     0.625000000         0.125000000         0.437500000
     0.750000000         0.000000000         0.375000000
     0.875000000         0.125000000         0.437500000
     0.000000000         0.250000000         0.375000000
     0.125000000         0.375000000         0.437500000
     0.250000000         0.250000000         0.375000000
     0.375000000         0.375000000         0.437500000
     0.500000000         0.250000000         0.375000000
     0.625000000         0.375000000         0.437500000
     0.750000000         0.250000000         0.375000000
     0.875000000         0.375000000         0.437500000
     0.000000000         0.500000000         0.375000000
     0.125000000         0.625000000         0.437500000
     0.250000000         0.500000000         0.375000000
     0.375000000         0.625000000         0.437500000
     0.500000000         0.500000000         0.375000000
     0.625000000         0.625000000         0.437500000
     0.750000000         0.500000000         0.375000000
     0.875000000         0.625000000         0.437500000
     0.000000000         0.750000000         0.375000000
     0.125000000         0.875000000         0.437500000
     0.250000000         0.750000000         0.375000000
     0.375000000         0.875000000         0.437500000
     0.500000000         0.750000000         0.375000000
     0.625000000         0.875000000         0.437500000
     0.750000000         0.750000000         0.375000000
     0.875000000         0.875000000         0.437500000
     0.000000000         0.000000000         0.500000000
     0.125000000         0.125000000         0.562500000
     0.250000000         0.000000000         0.500000000
     0.375000000         0.125000000         0.562500000
     0.500000000         0.000000000         0.500000000
     0.625000000         0.125000000         0.562500000
     0.750000000         0.000000000         0.500000000
     0.875000000         0.125000000         0.562500000
     0.000000000         0.250000000         0.500000000
     0.125000000         0.375000000         0.562500000
     0.250000000         0.250000000         0.500000000
     0.375000000         0.375000000         0.562500000
     0.500000000         0.250000000         0.500000000
     0.625000000         0.375000000         0.562500000
     0.750000000         0.250000000         0.500000000
     0.875000000         0.375000000         0.562500000
     0.000000000         0.500000000         0.500000000
     0.125000000         0.625000000         0.562500000
     0.250000000         0.500000000         0.500000000
     0.375000000         0.625000000         0.562500000
     0.500000000         0.500000000         0.500000000
     0.625000000         0.625000000         0.562500000
     0.750000000         0.500000000         0.500000000
     0.875000000         0.625000000         0.562500000
     0.000000000         0.750000000         0.500000000
     0.125000000         0.875000000         0.562500000
     0.250000000         0.750000000         0.500000000
     0.375000000         0.875000000         0.562500000
     0.500000000         0.750000000         0.500000000
     0.625000000         0.875000000         0.562500000
     0.750000000         0.750000000         0.500000000
     0.875000000         0.875000000         0.562500000
     0.000000000         0.000000000         0.625000000
     0.125000000         0.125000000         0.687500000
     0.250000000         0.000000000         0.625000000
     0.375000000         0.125000000         0.687500000
     0.500000000         0.000000000         0.625000000
     0.625000000         0.125000000         0.687500000
     0.750000000         0.000000000         0.625000000
     0.875000000         0.125000000         0.687500000
     0.000000000         0.250000000         0.625000000
     0.125000000         0.375000000         0.687500000
     0.250000000         0.250000000         0.625000000
     0.375000000         0.375000000         0.687500000
     0.500000000         0.250000000         0.625000000
     0.625000000         0.375000000         0.687500000
     0.750000000         0.250000000         0.625000000
     0.875000000         0.375000000         0.687500000
     0.000000000         0.500000000         0.625000000
     0.125000000         0.625000000         0.687500000
     0.250000000         0.500000000         0.625000000
     0.375000000         0.625000000         0.687500000
     0.500000000         0.500000000         0.625000000
     0.625000000         0.625000000         0.687500000
     0.750000000         0.500000000         0.625000000
     0.875000000         0.625000000         0.687500000
     0.000000000         0.750000000         0.625000000
     0.125000000         0.875000000         0.687500000
     0.250000000         0.750000000         0.625000000
     0.375000000         0.875000000         0.687500000
     0.500000000         0.750000000         0.625000000
     0.625000000         0.875000000         0.687500000
     0.750000000         0.750000000         0.625000000
     0.875000000         0.875000000         0.687500000
     0.000000000         0.000000000         0.750000000
     0.125000000         0.125000000         0.812500000
     0.250000000         0.000000000         0.750000000
     0.375000000         0.125000000         0.812500000
     0.500000000         0.000000000         0.750000000
     0.625000000         0.125000000         0.812500000
     0.750000000         0.000000000         0.750000000
     0.875000000         0.125000000         0.812500000
     0.000000000         0.250000000         0.750000000
     0.125000000         0.375000000         0.812500000
     0.250000000         0.250000000         0.750000000
     0.375000000         0.375000000         0.812500000
     0.500000000         0.250000000         0.750000000
     0.625000000         0.375000000         0.812500000
     0.750000000         0.250000000         0.750000000
     0.875000000         0.375000000         0.812500000
     0.000000000         0.500000000         0.750000000
     0.125000000         0.625000000         0.812500000
     0.250000000         0.500000000         0.750000000
     0.375000000         0.625000000         0.812500000
     0.500000000         0.500000000         0.750000000
     0.625000000         0.625000000         0.812500000
     0.750000000         0.500000000         0.750000000
     0.875000000         0.625000000         0.812500000
     0.000000000         0.750000000         0.750000000
     0.125000000         0.875000000         0.812500000
     0.250000000         0.750000000         0.750000000
     0.375000000         0.875000000         0.812500000
     0.500000000         0.750000000         0.750000000
     0.625000000         0.875000000         0.812500000
     0.750000000         0.750000000         0.750000000
     0.875000000         0.875000000         0.812500000
     0.000000000         0.000000000         0.875000000
     0.125000000         0.125000000         0.937500000
     0.250000000         0.000000000         0.875000000
     0.375000000         0.125000000         0.937500000
     0.500000000         0.000000000         0.875000000
     0.625000000         0.125000000         0.937500000
     0.750000000         0.000000000         0.875000000
     0.875000000         0.125000000         0.937500000
     0.000000000         0.250000000         0.875000000
     0.125000000         0.375000000         0.937500000
     0.250000000         0.250000000         0.875000000
     0.375000000         0.375000000         0.937500000
     0.500000000         0.250000000         0.875000000
     0.625000000         0.375000000         0.937500000
     0.750000000         0.250000000         0.875000000
     0.875000000         0.375000000         0.937500000
     0.000000000         0.500000000         0.875000000
     0.125000000         0.625000000         0.937500000
     0.250000000         0.500000000         0.875000000
     0.375000000         0.625000000         0.937500000
     0.500000000         0.500000000         0.875000000
     0.625000000         0.625000000         0.937500000
     0.750000000         0.500000000         0.875000000
     0.875000000         0.625000000         0.937500000
     0.000000000         0.750000000         0.875000000
     0.125000000         0.875000000         0.937500000
     0.250000000         0.750000000         0.875000000
     0.375000000         0.875000000         0.937500000
     0.500000000         0.750000000         0.875000000
     0.625000000         0.875000000         0.937500000
     0.750000000         0.750000000         0.875000000
     0.875000000         0.875000000         0.937500000
