INPUT_PARAMETERS
pseudo_dir .
orbital_dir .
nbands		15

calculation	scf
ecutwfc		100
scf_thr		1.0e-8
scf_nmax	100

smearing_method	gaussian
smearing_sigma	0.02

mixing_type	broyden
mixing_beta	0.4

basis_type	lcao
gamma_only	0

qo_switch 1
qo_basis pswfc
qo_screening_coeff 0.5
qo_thr 1e-6

symmetry -1
