ATOMIC_SPECIES
As 1.0000 As_dojo_soc.upf
Ga 1.0000 Ga_dojo_soc.upf

NUMERICAL_ORBITAL
As_gga_8au_100Ry_2s2p1d.orb
Ga_gga_9au_60Ry_2s2p2d.orb

LATTICE_CONSTANT
1.0000000000

LATTICE_VECTORS
5.34197 5.34197 0.00000
0.00000 5.34197 5.34197
5.34197 0.00000 5.34197
ATOMIC_POSITIONS
Direct

As
0
1
0.2500000          0.2500000          0.25000000     0 0 0

Ga
0
1
0.00000          0.00000          0.000000     0 0 0
