ATOMIC_SPECIES
Ag  107.8682      Ag_ONCV_PBE-1.0.upf
S   32.06         S_ONCV_PBE-1.0.upf

NUMERICAL_ORBITAL
Ag_gga_9au_60Ry_4s2p2d1f.orb
S_gga_8au_60Ry_2s2p1d.orb

LATTICE_CONSTANT
1.8897261258369282 

LATTICE_VECTORS
5.9755370000      0.0000000000      0.0000000000      
-2.987768000      5.1749680000      0.0000000000      
0.0000000000      0.0000000000      4.6713980000      

ATOMIC_POSITIONS
Direct

Ag
0.0000000000
6
0.1649420000 0.3298840000 0.2500000000 1 1 1 mag 0.0 
0.6701160000 0.8350580000 0.2500000000 1 1 1 mag 0.0 
0.1649420000 0.8350580000 0.2500000000 1 1 1 mag 0.0 
0.8350580000 0.6701160000 0.7500000000 1 1 1 mag 0.0 
0.3298840000 0.1649420000 0.7500000000 1 1 1 mag 0.0 
0.8350580000 0.1649420000 0.7500000000 1 1 1 mag 0.0 

S
0.0000000000
2
0.3333330000 0.6666670000 0.7500000000 1 1 1 mag 0.0 
0.6666670000 0.3333330000 0.2500000000 1 1 1 mag 0.0 

