INPUT_PARAMETERS
gamma_only    1
cal_stress    1
cal_force    1
ks_solver    cusolver
# Created by Atomic Simulation Enviroment
stru_file                               327
basis_type    lcao
dft_functional                          pbe
device    gpu
suffix    autotest
calculation    scf
