ATOMIC_SPECIES
Na	22.98976928	Na_ONCV_PBE-1.0.upf
Cl	35.453	Cl_ONCV_PBE-1.0.upf

NUMERICAL_ORBITAL
Na_gga_8au_100Ry_4s2p1d.orb
Cl_gga_7au_100Ry_2s2p1d.orb

LATTICE_CONSTANT
1.0

LATTICE_VECTORS
21.50622272252082 0.0 0.0
0.0 21.50622272252082 0.0
0.0 0.0 21.50622272252082

ATOMIC_POSITIONS
Direct

Na
0
32
0.0009299633998050462 0.0 0.0 1 1 1 mag 1.0
0.5 0.0 0.0 1 1 1 mag 1.0
0.0 0.5 0.0 1 1 1 mag 1.0
0.5 0.5 0.0 1 1 1 mag 1.0
0.0 0.0 0.5 1 1 1 mag 1.0
0.5 0.0 0.5 1 1 1 mag 1.0
0.0 0.5 0.5 1 1 1 mag 1.0
0.5 0.5 0.5 1 1 1 mag 1.0
0.0 0.25 0.25 1 1 1 mag 1.0
0.5 0.25 0.25 1 1 1 mag 1.0
0.0 0.75 0.25 1 1 1 mag 1.0
0.5 0.75 0.25 1 1 1 mag 1.0
0.0 0.25 0.75 1 1 1 mag 1.0
0.5 0.25 0.75 1 1 1 mag 1.0
0.0 0.75 0.75 1 1 1 mag 1.0
0.5 0.75 0.75 1 1 1 mag 1.0
0.25 0.0 0.25 1 1 1 mag 1.0
0.75 0.0 0.25 1 1 1 mag 1.0
0.25 0.5 0.25 1 1 1 mag 1.0
0.75 0.5 0.25 1 1 1 mag 1.0
0.25 0.0 0.75 1 1 1 mag 1.0
0.75 0.0 0.75 1 1 1 mag 1.0
0.25 0.5 0.75 1 1 1 mag 1.0
0.75 0.5 0.75 1 1 1 mag 1.0
0.25 0.25 0.0 1 1 1 mag 1.0
0.75 0.25 0.0 1 1 1 mag 1.0
0.25 0.75 0.0 1 1 1 mag 1.0
0.75 0.75 0.0 1 1 1 mag 1.0
0.25 0.25 0.5 1 1 1 mag 1.0
0.75 0.25 0.5 1 1 1 mag 1.0
0.25 0.75 0.5 1 1 1 mag 1.0
0.75 0.75 0.5 1 1 1 mag 1.0

Cl
0
32
0.25 0.25 0.25 1 1 1 mag 2.0
0.75 0.25 0.25 1 1 1 mag 2.0
0.25 0.75 0.25 1 1 1 mag 2.0
0.75 0.75 0.25 1 1 1 mag 2.0
0.25 0.25 0.75 1 1 1 mag 2.0
0.75 0.25 0.75 1 1 1 mag 2.0
0.25 0.75 0.75 1 1 1 mag 2.0
0.75 0.75 0.75 1 1 1 mag 2.0
0.25 0.0 0.0 1 1 1 mag 2.0
0.75 0.0 0.0 1 1 1 mag 2.0
0.25 0.5 0.0 1 1 1 mag 2.0
0.75 0.5 0.0 1 1 1 mag 2.0
0.25 0.0 0.5 1 1 1 mag 2.0
0.75 0.0 0.5 1 1 1 mag 2.0
0.25 0.5 0.5 1 1 1 mag 2.0
0.75 0.5 0.5 1 1 1 mag 2.0
0.0 0.25 0.0 1 1 1 mag 2.0
0.5 0.25 0.0 1 1 1 mag 2.0
0.0 0.75 0.0 1 1 1 mag 2.0
0.5 0.75 0.0 1 1 1 mag 2.0
0.0 0.25 0.5 1 1 1 mag 2.0
0.5 0.25 0.5 1 1 1 mag 2.0
0.0 0.75 0.5 1 1 1 mag 2.0
0.5 0.75 0.5 1 1 1 mag 2.0
0.0 0.0 0.25 1 1 1 mag 2.0
0.5 0.0 0.25 1 1 1 mag 2.0
0.0 0.5 0.25 1 1 1 mag 2.0
0.5 0.5 0.25 1 1 1 mag 2.0
0.0 0.0 0.75 1 1 1 mag 2.0
0.5 0.0 0.75 1 1 1 mag 2.0
0.0 0.5 0.75 1 1 1 mag 2.0
0.5 0.5 0.75 1 1 1 mag 2.0
