INPUT_PARAMETERS
#Parameters	(General)
pseudo_dir		../../../tests/PP_ORB
orbital_dir		../../../tests/PP_ORB
#Parameters (Accuracy)
ecutwfc			50
scf_nmax		100
scf_thr                 1e-6
basis_type		lcao
cal_stress      1
cal_force       1
gamma_only      1
