	ATOMIC_SPECIES
	Fe 55.85 ../../PP_ORB/Fe_ONCV_PBE-1.0.upf

	NUMERICAL_ORBITAL
	../../PP_ORB/Fe_gga_8au_100Ry_4s2p2d1f.orb

	LATTICE_CONSTANT
	1.8897261258369282

	LATTICE_VECTORS
       16.9799995422         0.0000000000         0.0000000000
        0.0000000000        16.9799995422         0.0000000000
        0.0000000000         0.0000000000        16.9799995422
	
	ATOMIC_POSITIONS
	Direct
	Fe
	4
  	432
     0.000000000         0.000000000         0.000000000
     0.083333001         0.083333001         0.083333001
     0.166666999         0.000000000         0.000000000
     0.250000000         0.083333001         0.083333001
     0.333332986         0.000000000         0.000000000
     0.416667014         0.083333001         0.083333001
     0.500000000         0.000000000         0.000000000
     0.583333015         0.083333001         0.083333001
     0.666666985         0.000000000         0.000000000
     0.750000000         0.083333001         0.083333001
     0.833333015         0.000000000         0.000000000
     0.916666985         0.083333001         0.083333001
     0.000000000         0.166666999         0.000000000
     0.083333001         0.250000000         0.083333001
     0.166666999         0.166666999         0.000000000
     0.250000000         0.250000000         0.083333001
     0.333332986         0.166666999         0.000000000
     0.416667014         0.250000000         0.083333001
     0.500000000         0.166666999         0.000000000
     0.583333015         0.250000000         0.083333001
     0.666666985         0.166666999         0.000000000
     0.750000000         0.250000000         0.083333001
     0.833333015         0.166666999         0.000000000
     0.916666985         0.250000000         0.083333001
     0.000000000         0.333332986         0.000000000
     0.083333001         0.416667014         0.083333001
     0.166666999         0.333332986         0.000000000
     0.250000000         0.416667014         0.083333001
     0.333332986         0.333332986         0.000000000
     0.416667014         0.416667014         0.083333001
     0.500000000         0.333332986         0.000000000
     0.583333015         0.416667014         0.083333001
     0.666666985         0.333332986         0.000000000
     0.750000000         0.416667014         0.083333001
     0.833333015         0.333332986         0.000000000
     0.916666985         0.416667014         0.083333001
     0.000000000         0.500000000         0.000000000
     0.083333001         0.583333015         0.083333001
     0.166666999         0.500000000         0.000000000
     0.250000000         0.583333015         0.083333001
     0.333332986         0.500000000         0.000000000
     0.416667014         0.583333015         0.083333001
     0.500000000         0.500000000         0.000000000
     0.583333015         0.583333015         0.083333001
     0.666666985         0.500000000         0.000000000
     0.750000000         0.583333015         0.083333001
     0.833333015         0.500000000         0.000000000
     0.916666985         0.583333015         0.083333001
     0.000000000         0.666666985         0.000000000
     0.083333001         0.750000000         0.083333001
     0.166666999         0.666666985         0.000000000
     0.250000000         0.750000000         0.083333001
     0.333332986         0.666666985         0.000000000
     0.416667014         0.750000000         0.083333001
     0.500000000         0.666666985         0.000000000
     0.583333015         0.750000000         0.083333001
     0.666666985         0.666666985         0.000000000
     0.750000000         0.750000000         0.083333001
     0.833333015         0.666666985         0.000000000
     0.916666985         0.750000000         0.083333001
     0.000000000         0.833333015         0.000000000
     0.083333001         0.916666985         0.083333001
     0.166666999         0.833333015         0.000000000
     0.250000000         0.916666985         0.083333001
     0.333332986         0.833333015         0.000000000
     0.416667014         0.916666985         0.083333001
     0.500000000         0.833333015         0.000000000
     0.583333015         0.916666985         0.083333001
     0.666666985         0.833333015         0.000000000
     0.750000000         0.916666985         0.083333001
     0.833333015         0.833333015         0.000000000
     0.916666985         0.916666985         0.083333001
     0.000000000         0.000000000         0.166666999
     0.083333001         0.083333001         0.250000000
     0.166666999         0.000000000         0.166666999
     0.250000000         0.083333001         0.250000000
     0.333332986         0.000000000         0.166666999
     0.416667014         0.083333001         0.250000000
     0.500000000         0.000000000         0.166666999
     0.583333015         0.083333001         0.250000000
     0.666666985         0.000000000         0.166666999
     0.750000000         0.083333001         0.250000000
     0.833333015         0.000000000         0.166666999
     0.916666985         0.083333001         0.250000000
     0.000000000         0.166666999         0.166666999
     0.083333001         0.250000000         0.250000000
     0.166666999         0.166666999         0.166666999
     0.250000000         0.250000000         0.250000000
     0.333332986         0.166666999         0.166666999
     0.416667014         0.250000000         0.250000000
     0.500000000         0.166666999         0.166666999
     0.583333015         0.250000000         0.250000000
     0.666666985         0.166666999         0.166666999
     0.750000000         0.250000000         0.250000000
     0.833333015         0.166666999         0.166666999
     0.916666985         0.250000000         0.250000000
     0.000000000         0.333332986         0.166666999
     0.083333001         0.416667014         0.250000000
     0.166666999         0.333332986         0.166666999
     0.250000000         0.416667014         0.250000000
     0.333332986         0.333332986         0.166666999
     0.416667014         0.416667014         0.250000000
     0.500000000         0.333332986         0.166666999
     0.583333015         0.416667014         0.250000000
     0.666666985         0.333332986         0.166666999
     0.750000000         0.416667014         0.250000000
     0.833333015         0.333332986         0.166666999
     0.916666985         0.416667014         0.250000000
     0.000000000         0.500000000         0.166666999
     0.083333001         0.583333015         0.250000000
     0.166666999         0.500000000         0.166666999
     0.250000000         0.583333015         0.250000000
     0.333332986         0.500000000         0.166666999
     0.416667014         0.583333015         0.250000000
     0.500000000         0.500000000         0.166666999
     0.583333015         0.583333015         0.250000000
     0.666666985         0.500000000         0.166666999
     0.750000000         0.583333015         0.250000000
     0.833333015         0.500000000         0.166666999
     0.916666985         0.583333015         0.250000000
     0.000000000         0.666666985         0.166666999
     0.083333001         0.750000000         0.250000000
     0.166666999         0.666666985         0.166666999
     0.250000000         0.750000000         0.250000000
     0.333332986         0.666666985         0.166666999
     0.416667014         0.750000000         0.250000000
     0.500000000         0.666666985         0.166666999
     0.583333015         0.750000000         0.250000000
     0.666666985         0.666666985         0.166666999
     0.750000000         0.750000000         0.250000000
     0.833333015         0.666666985         0.166666999
     0.916666985         0.750000000         0.250000000
     0.000000000         0.833333015         0.166666999
     0.083333001         0.916666985         0.250000000
     0.166666999         0.833333015         0.166666999
     0.250000000         0.916666985         0.250000000
     0.333332986         0.833333015         0.166666999
     0.416667014         0.916666985         0.250000000
     0.500000000         0.833333015         0.166666999
     0.583333015         0.916666985         0.250000000
     0.666666985         0.833333015         0.166666999
     0.750000000         0.916666985         0.250000000
     0.833333015         0.833333015         0.166666999
     0.916666985         0.916666985         0.250000000
     0.000000000         0.000000000         0.333332986
     0.083333001         0.083333001         0.416667014
     0.166666999         0.000000000         0.333332986
     0.250000000         0.083333001         0.416667014
     0.333332986         0.000000000         0.333332986
     0.416667014         0.083333001         0.416667014
     0.500000000         0.000000000         0.333332986
     0.583333015         0.083333001         0.416667014
     0.666666985         0.000000000         0.333332986
     0.750000000         0.083333001         0.416667014
     0.833333015         0.000000000         0.333332986
     0.916666985         0.083333001         0.416667014
     0.000000000         0.166666999         0.333332986
     0.083333001         0.250000000         0.416667014
     0.166666999         0.166666999         0.333332986
     0.250000000         0.250000000         0.416667014
     0.333332986         0.166666999         0.333332986
     0.416667014         0.250000000         0.416667014
     0.500000000         0.166666999         0.333332986
     0.583333015         0.250000000         0.416667014
     0.666666985         0.166666999         0.333332986
     0.750000000         0.250000000         0.416667014
     0.833333015         0.166666999         0.333332986
     0.916666985         0.250000000         0.416667014
     0.000000000         0.333332986         0.333332986
     0.083333001         0.416667014         0.416667014
     0.166666999         0.333332986         0.333332986
     0.250000000         0.416667014         0.416667014
     0.333332986         0.333332986         0.333332986
     0.416667014         0.416667014         0.416667014
     0.500000000         0.333332986         0.333332986
     0.583333015         0.416667014         0.416667014
     0.666666985         0.333332986         0.333332986
     0.750000000         0.416667014         0.416667014
     0.833333015         0.333332986         0.333332986
     0.916666985         0.416667014         0.416667014
     0.000000000         0.500000000         0.333332986
     0.083333001         0.583333015         0.416667014
     0.166666999         0.500000000         0.333332986
     0.250000000         0.583333015         0.416667014
     0.333332986         0.500000000         0.333332986
     0.416667014         0.583333015         0.416667014
     0.500000000         0.500000000         0.333332986
     0.583333015         0.583333015         0.416667014
     0.666666985         0.500000000         0.333332986
     0.750000000         0.583333015         0.416667014
     0.833333015         0.500000000         0.333332986
     0.916666985         0.583333015         0.416667014
     0.000000000         0.666666985         0.333332986
     0.083333001         0.750000000         0.416667014
     0.166666999         0.666666985         0.333332986
     0.250000000         0.750000000         0.416667014
     0.333332986         0.666666985         0.333332986
     0.416667014         0.750000000         0.416667014
     0.500000000         0.666666985         0.333332986
     0.583333015         0.750000000         0.416667014
     0.666666985         0.666666985         0.333332986
     0.750000000         0.750000000         0.416667014
     0.833333015         0.666666985         0.333332986
     0.916666985         0.750000000         0.416667014
     0.000000000         0.833333015         0.333332986
     0.083333001         0.916666985         0.416667014
     0.166666999         0.833333015         0.333332986
     0.250000000         0.916666985         0.416667014
     0.333332986         0.833333015         0.333332986
     0.416667014         0.916666985         0.416667014
     0.500000000         0.833333015         0.333332986
     0.583333015         0.916666985         0.416667014
     0.666666985         0.833333015         0.333332986
     0.750000000         0.916666985         0.416667014
     0.833333015         0.833333015         0.333332986
     0.916666985         0.916666985         0.416667014
     0.000000000         0.000000000         0.500000000
     0.083333001         0.083333001         0.583333015
     0.166666999         0.000000000         0.500000000
     0.250000000         0.083333001         0.583333015
     0.333332986         0.000000000         0.500000000
     0.416667014         0.083333001         0.583333015
     0.500000000         0.000000000         0.500000000
     0.583333015         0.083333001         0.583333015
     0.666666985         0.000000000         0.500000000
     0.750000000         0.083333001         0.583333015
     0.833333015         0.000000000         0.500000000
     0.916666985         0.083333001         0.583333015
     0.000000000         0.166666999         0.500000000
     0.083333001         0.250000000         0.583333015
     0.166666999         0.166666999         0.500000000
     0.250000000         0.250000000         0.583333015
     0.333332986         0.166666999         0.500000000
     0.416667014         0.250000000         0.583333015
     0.500000000         0.166666999         0.500000000
     0.583333015         0.250000000         0.583333015
     0.666666985         0.166666999         0.500000000
     0.750000000         0.250000000         0.583333015
     0.833333015         0.166666999         0.500000000
     0.916666985         0.250000000         0.583333015
     0.000000000         0.333332986         0.500000000
     0.083333001         0.416667014         0.583333015
     0.166666999         0.333332986         0.500000000
     0.250000000         0.416667014         0.583333015
     0.333332986         0.333332986         0.500000000
     0.416667014         0.416667014         0.583333015
     0.500000000         0.333332986         0.500000000
     0.583333015         0.416667014         0.583333015
     0.666666985         0.333332986         0.500000000
     0.750000000         0.416667014         0.583333015
     0.833333015         0.333332986         0.500000000
     0.916666985         0.416667014         0.583333015
     0.000000000         0.500000000         0.500000000
     0.083333001         0.583333015         0.583333015
     0.166666999         0.500000000         0.500000000
     0.250000000         0.583333015         0.583333015
     0.333332986         0.500000000         0.500000000
     0.416667014         0.583333015         0.583333015
     0.500000000         0.500000000         0.500000000
     0.583333015         0.583333015         0.583333015
     0.666666985         0.500000000         0.500000000
     0.750000000         0.583333015         0.583333015
     0.833333015         0.500000000         0.500000000
     0.916666985         0.583333015         0.583333015
     0.000000000         0.666666985         0.500000000
     0.083333001         0.750000000         0.583333015
     0.166666999         0.666666985         0.500000000
     0.250000000         0.750000000         0.583333015
     0.333332986         0.666666985         0.500000000
     0.416667014         0.750000000         0.583333015
     0.500000000         0.666666985         0.500000000
     0.583333015         0.750000000         0.583333015
     0.666666985         0.666666985         0.500000000
     0.750000000         0.750000000         0.583333015
     0.833333015         0.666666985         0.500000000
     0.916666985         0.750000000         0.583333015
     0.000000000         0.833333015         0.500000000
     0.083333001         0.916666985         0.583333015
     0.166666999         0.833333015         0.500000000
     0.250000000         0.916666985         0.583333015
     0.333332986         0.833333015         0.500000000
     0.416667014         0.916666985         0.583333015
     0.500000000         0.833333015         0.500000000
     0.583333015         0.916666985         0.583333015
     0.666666985         0.833333015         0.500000000
     0.750000000         0.916666985         0.583333015
     0.833333015         0.833333015         0.500000000
     0.916666985         0.916666985         0.583333015
     0.000000000         0.000000000         0.666666985
     0.083333001         0.083333001         0.750000000
     0.166666999         0.000000000         0.666666985
     0.250000000         0.083333001         0.750000000
     0.333332986         0.000000000         0.666666985
     0.416667014         0.083333001         0.750000000
     0.500000000         0.000000000         0.666666985
     0.583333015         0.083333001         0.750000000
     0.666666985         0.000000000         0.666666985
     0.750000000         0.083333001         0.750000000
     0.833333015         0.000000000         0.666666985
     0.916666985         0.083333001         0.750000000
     0.000000000         0.166666999         0.666666985
     0.083333001         0.250000000         0.750000000
     0.166666999         0.166666999         0.666666985
     0.250000000         0.250000000         0.750000000
     0.333332986         0.166666999         0.666666985
     0.416667014         0.250000000         0.750000000
     0.500000000         0.166666999         0.666666985
     0.583333015         0.250000000         0.750000000
     0.666666985         0.166666999         0.666666985
     0.750000000         0.250000000         0.750000000
     0.833333015         0.166666999         0.666666985
     0.916666985         0.250000000         0.750000000
     0.000000000         0.333332986         0.666666985
     0.083333001         0.416667014         0.750000000
     0.166666999         0.333332986         0.666666985
     0.250000000         0.416667014         0.750000000
     0.333332986         0.333332986         0.666666985
     0.416667014         0.416667014         0.750000000
     0.500000000         0.333332986         0.666666985
     0.583333015         0.416667014         0.750000000
     0.666666985         0.333332986         0.666666985
     0.750000000         0.416667014         0.750000000
     0.833333015         0.333332986         0.666666985
     0.916666985         0.416667014         0.750000000
     0.000000000         0.500000000         0.666666985
     0.083333001         0.583333015         0.750000000
     0.166666999         0.500000000         0.666666985
     0.250000000         0.583333015         0.750000000
     0.333332986         0.500000000         0.666666985
     0.416667014         0.583333015         0.750000000
     0.500000000         0.500000000         0.666666985
     0.583333015         0.583333015         0.750000000
     0.666666985         0.500000000         0.666666985
     0.750000000         0.583333015         0.750000000
     0.833333015         0.500000000         0.666666985
     0.916666985         0.583333015         0.750000000
     0.000000000         0.666666985         0.666666985
     0.083333001         0.750000000         0.750000000
     0.166666999         0.666666985         0.666666985
     0.250000000         0.750000000         0.750000000
     0.333332986         0.666666985         0.666666985
     0.416667014         0.750000000         0.750000000
     0.500000000         0.666666985         0.666666985
     0.583333015         0.750000000         0.750000000
     0.666666985         0.666666985         0.666666985
     0.750000000         0.750000000         0.750000000
     0.833333015         0.666666985         0.666666985
     0.916666985         0.750000000         0.750000000
     0.000000000         0.833333015         0.666666985
     0.083333001         0.916666985         0.750000000
     0.166666999         0.833333015         0.666666985
     0.250000000         0.916666985         0.750000000
     0.333332986         0.833333015         0.666666985
     0.416667014         0.916666985         0.750000000
     0.500000000         0.833333015         0.666666985
     0.583333015         0.916666985         0.750000000
     0.666666985         0.833333015         0.666666985
     0.750000000         0.916666985         0.750000000
     0.833333015         0.833333015         0.666666985
     0.916666985         0.916666985         0.750000000
     0.000000000         0.000000000         0.833333015
     0.083333001         0.083333001         0.916666985
     0.166666999         0.000000000         0.833333015
     0.250000000         0.083333001         0.916666985
     0.333332986         0.000000000         0.833333015
     0.416667014         0.083333001         0.916666985
     0.500000000         0.000000000         0.833333015
     0.583333015         0.083333001         0.916666985
     0.666666985         0.000000000         0.833333015
     0.750000000         0.083333001         0.916666985
     0.833333015         0.000000000         0.833333015
     0.916666985         0.083333001         0.916666985
     0.000000000         0.166666999         0.833333015
     0.083333001         0.250000000         0.916666985
     0.166666999         0.166666999         0.833333015
     0.250000000         0.250000000         0.916666985
     0.333332986         0.166666999         0.833333015
     0.416667014         0.250000000         0.916666985
     0.500000000         0.166666999         0.833333015
     0.583333015         0.250000000         0.916666985
     0.666666985         0.166666999         0.833333015
     0.750000000         0.250000000         0.916666985
     0.833333015         0.166666999         0.833333015
     0.916666985         0.250000000         0.916666985
     0.000000000         0.333332986         0.833333015
     0.083333001         0.416667014         0.916666985
     0.166666999         0.333332986         0.833333015
     0.250000000         0.416667014         0.916666985
     0.333332986         0.333332986         0.833333015
     0.416667014         0.416667014         0.916666985
     0.500000000         0.333332986         0.833333015
     0.583333015         0.416667014         0.916666985
     0.666666985         0.333332986         0.833333015
     0.750000000         0.416667014         0.916666985
     0.833333015         0.333332986         0.833333015
     0.916666985         0.416667014         0.916666985
     0.000000000         0.500000000         0.833333015
     0.083333001         0.583333015         0.916666985
     0.166666999         0.500000000         0.833333015
     0.250000000         0.583333015         0.916666985
     0.333332986         0.500000000         0.833333015
     0.416667014         0.583333015         0.916666985
     0.500000000         0.500000000         0.833333015
     0.583333015         0.583333015         0.916666985
     0.666666985         0.500000000         0.833333015
     0.750000000         0.583333015         0.916666985
     0.833333015         0.500000000         0.833333015
     0.916666985         0.583333015         0.916666985
     0.000000000         0.666666985         0.833333015
     0.083333001         0.750000000         0.916666985
     0.166666999         0.666666985         0.833333015
     0.250000000         0.750000000         0.916666985
     0.333332986         0.666666985         0.833333015
     0.416667014         0.750000000         0.916666985
     0.500000000         0.666666985         0.833333015
     0.583333015         0.750000000         0.916666985
     0.666666985         0.666666985         0.833333015
     0.750000000         0.750000000         0.916666985
     0.833333015         0.666666985         0.833333015
     0.916666985         0.750000000         0.916666985
     0.000000000         0.833333015         0.833333015
     0.083333001         0.916666985         0.916666985
     0.166666999         0.833333015         0.833333015
     0.250000000         0.916666985         0.916666985
     0.333332986         0.833333015         0.833333015
     0.416667014         0.916666985         0.916666985
     0.500000000         0.833333015         0.833333015
     0.583333015         0.916666985         0.916666985
     0.666666985         0.833333015         0.833333015
     0.750000000         0.916666985         0.916666985
     0.833333015         0.833333015         0.833333015
     0.916666985         0.916666985         0.916666985
